md conv
title
ASE calculation
end

cell
12.494000 12.494000 10.508000 90.00000 90.00000 120.00000
frac
 O_O2- core  0.0000000   0.3565000   0.2500000
 O_O2- shel  0.0000000   0.3565000   0.2500000
 O_O2- core  0.6435000   0.6435000   0.2500000
 O_O2- shel  0.6435000   0.6435000   0.2500000
 O_O2- core  0.3565000   0.0000000   0.2500000
 O_O2- shel  0.3565000   0.0000000   0.2500000
 O_O2- core  0.0000000   0.6435000   0.0000000
 O_O2- shel  0.0000000   0.6435000   0.0000000
 O_O2- core  0.3565000   0.3565000   0.0000000
 O_O2- shel  0.3565000   0.3565000   0.0000000
 O_O2- core  0.6435000   0.0000000   0.0000000
 O_O2- shel  0.6435000   0.0000000   0.0000000
 O_O2- core  0.6435000   0.0000000   0.2500000
 O_O2- shel  0.6435000   0.0000000   0.2500000
 O_O2- core  0.3565000   0.3565000   0.2500000
 O_O2- shel  0.3565000   0.3565000   0.2500000
 O_O2- core  0.0000000   0.6435000   0.2500000
 O_O2- shel  0.0000000   0.6435000   0.2500000
 O_O2- core  0.3565000   0.0000000   0.0000000
 O_O2- shel  0.3565000   0.0000000   0.0000000
 O_O2- core  0.6435000   0.6435000   0.0000000
 O_O2- shel  0.6435000   0.6435000   0.0000000
 O_O2- core  0.0000000   0.3565000   0.0000000
 O_O2- shel  0.0000000   0.3565000   0.0000000
 O_O2- core  0.1986000   0.3972000   0.3750000
 O_O2- shel  0.1986000   0.3972000   0.3750000
 O_O2- core  0.6028000   0.8014000   0.3750000
 O_O2- shel  0.6028000   0.8014000   0.3750000
 O_O2- core  0.1986000   0.8014000   0.3750000
 O_O2- shel  0.1986000   0.8014000   0.3750000
 O_O2- core  0.8014000   0.6028000   0.1250000
 O_O2- shel  0.8014000   0.6028000   0.1250000
 O_O2- core  0.3972000   0.1986000   0.1250000
 O_O2- shel  0.3972000   0.1986000   0.1250000
 O_O2- core  0.8014000   0.1986000   0.1250000
 O_O2- shel  0.8014000   0.1986000   0.1250000
 O_O2- core  0.1299000   0.5650000   0.3750000
 O_O2- shel  0.1299000   0.5650000   0.3750000
 O_O2- core  0.4350000   0.5649000   0.3750000
 O_O2- shel  0.4350000   0.5649000   0.3750000
 O_O2- core  0.4351000   0.8701000   0.3750000
 O_O2- shel  0.4351000   0.8701000   0.3750000
 O_O2- core  0.8701000   0.4350000   0.1250000
 O_O2- shel  0.8701000   0.4350000   0.1250000
 O_O2- core  0.5650000   0.4351000   0.1250000
 O_O2- shel  0.5650000   0.4351000   0.1250000
 O_O2- core  0.5649000   0.1299000   0.1250000
 O_O2- shel  0.5649000   0.1299000   0.1250000
 Si core  0.0822000   0.4190000   0.3750000
 Si core  0.5810000   0.6632000   0.3750000
 Si core  0.3368000   0.9178000   0.3750000
 Si core  0.9178000   0.5810000   0.1250000
 Si core  0.4190000   0.3368000   0.1250000
 Si core  0.6632000   0.0822000   0.1250000
 Si core  0.5810000   0.9178000   0.3750000
 Si core  0.3368000   0.4190000   0.3750000
 Si core  0.0822000   0.6632000   0.3750000
 Si core  0.4190000   0.0822000   0.1250000
 Si core  0.6632000   0.5810000   0.1250000
 Si core  0.9178000   0.3368000   0.1250000
 O_O2- core  0.0000000   0.3565000   0.7500000
 O_O2- shel  0.0000000   0.3565000   0.7500000
 O_O2- core  0.6435000   0.6435000   0.7500000
 O_O2- shel  0.6435000   0.6435000   0.7500000
 O_O2- core  0.3565000   0.0000000   0.7500000
 O_O2- shel  0.3565000   0.0000000   0.7500000
 O_O2- core  0.0000000   0.6435000   0.5000000
 O_O2- shel  0.0000000   0.6435000   0.5000000
 O_O2- core  0.3565000   0.3565000   0.5000000
 O_O2- shel  0.3565000   0.3565000   0.5000000
 O_O2- core  0.6435000   0.0000000   0.5000000
 O_O2- shel  0.6435000   0.0000000   0.5000000
 O_O2- core  0.6435000   0.0000000   0.7500000
 O_O2- shel  0.6435000   0.0000000   0.7500000
 O_O2- core  0.3565000   0.3565000   0.7500000
 O_O2- shel  0.3565000   0.3565000   0.7500000
 O_O2- core  0.0000000   0.6435000   0.7500000
 O_O2- shel  0.0000000   0.6435000   0.7500000
 O_O2- core  0.3565000   0.0000000   0.5000000
 O_O2- shel  0.3565000   0.0000000   0.5000000
 O_O2- core  0.6435000   0.6435000   0.5000000
 O_O2- shel  0.6435000   0.6435000   0.5000000
 O_O2- core  0.0000000   0.3565000   0.5000000
 O_O2- shel  0.0000000   0.3565000   0.5000000
 O_O2- core  0.1986000   0.3972000   0.8750000
 O_O2- shel  0.1986000   0.3972000   0.8750000
 O_O2- core  0.6028000   0.8014000   0.8750000
 O_O2- shel  0.6028000   0.8014000   0.8750000
 O_O2- core  0.1986000   0.8014000   0.8750000
 O_O2- shel  0.1986000   0.8014000   0.8750000
 O_O2- core  0.8014000   0.6028000   0.6250000
 O_O2- shel  0.8014000   0.6028000   0.6250000
 O_O2- core  0.3972000   0.1986000   0.6250000
 O_O2- shel  0.3972000   0.1986000   0.6250000
 O_O2- core  0.8014000   0.1986000   0.6250000
 O_O2- shel  0.8014000   0.1986000   0.6250000
 O_O2- core  0.1299000   0.5650000   0.8750000
 O_O2- shel  0.1299000   0.5650000   0.8750000
 O_O2- core  0.4350000   0.5649000   0.8750000
 O_O2- shel  0.4350000   0.5649000   0.8750000
 O_O2- core  0.4351000   0.8701000   0.8750000
 O_O2- shel  0.4351000   0.8701000   0.8750000
 O_O2- core  0.8701000   0.4350000   0.6250000
 O_O2- shel  0.8701000   0.4350000   0.6250000
 O_O2- core  0.5650000   0.4351000   0.6250000
 O_O2- shel  0.5650000   0.4351000   0.6250000
 O_O2- core  0.5649000   0.1299000   0.6250000
 O_O2- shel  0.5649000   0.1299000   0.6250000
 Si core  0.0822000   0.4190000   0.8750000
 Si core  0.5810000   0.6632000   0.8750000
 Si core  0.3368000   0.9178000   0.8750000
 Si core  0.9178000   0.5810000   0.6250000
 Si core  0.4190000   0.3368000   0.6250000
 Si core  0.6632000   0.0822000   0.6250000
 Si core  0.5810000   0.9178000   0.8750000
 Si core  0.3368000   0.4190000   0.8750000
 Si core  0.0822000   0.6632000   0.8750000
 Si core  0.4190000   0.0822000   0.6250000
 Si core  0.6632000   0.5810000   0.6250000
 Si core  0.9178000   0.3368000   0.6250000

library catlow.lib
species
Si core 4.000
O_O2- core 0.86902
O_O2- shel -2.86902
buckingham
Si core    O_O2- shel  1283.907 0.32052 10.66158 0.0 10.0
Si core    O_OH  core   983.557 0.32052 10.66158 0.0 10.0
O_O2- shel O_O2- shel 22764.000 0.14900 27.87900 0.0 12.0
O_O2- shel O_OH  core 22764.000 0.14900 27.87900 0.0 12.0
O_OH  core O_OH  core 22764.000 0.14900 27.87900 0.0 12.0
O_O2- shel H_OH  core   311.970 0.25000  0.00000 0.0 12.0
morse
O_OH  core H_OH  core 7.0525 2.1986 0.9485 1.0 1.4
spring
O_O2-  74.92
three
Si core O_O2- shel O_O2- shel 2.09724 109.47 1.9 1.9 3.5
Si core O_OH  core O_O2- shel 2.09724 109.47 1.9 1.9 3.5

cutp 12.0 1.0
integrator leapfrog verlet
ensemble nvt 0.05
temperature 450
equil 0.05 ps
produ 0.05 ps
timestep 0.0001 ps
sample 0.01 ps
write 0.01 ps
shellmass 
O_O2- 0.1
output trajectory ascii CAN.trj
