single
title
 
end

maxcyc 150

vectors
13.2638260 0.5946850 0.4421320
0.7540700 20.8949560 -0.6552450
0.1648750 -0.1927000 6.2141040 

cartesian
  C_3    5.27378    9.43901    5.56736
  C_3    6.24199   10.48002   -0.09167
  C_3    6.58823   11.91977    5.76702
  N_3    6.61612    9.92488    1.47105
  C_3    8.02516   10.09203    1.97685
  C_3    8.23081    9.67812    3.56089
  N_3    7.57166    8.28250    4.18025
  C_3    7.77630    7.73216    5.73968
  C_3    6.79866    6.68675    0.34367
  N_3    7.17214    5.98392    1.76094
   H_    5.00976    8.55186    5.58437
   H_    4.63808   10.39012    5.52592
   H_    5.33846    8.72672    0.20524
   H_    6.99840    9.97060    5.40504
   H_    5.85672   12.63945    0.26143
   H_    6.39270   12.25281    4.73167
   H_    7.50247   12.31129    6.02084
H___A    6.31813    8.95537    1.74574
   H_    8.31895   11.09181    1.70590
   H_    8.71486    9.48772    1.44802
   H_    8.02730   10.71644    3.95755
   H_    9.09299    9.71129    4.06981
H___A    6.62459    8.21608    3.94861
   H_    7.53037    8.47586    0.29059
   H_    8.68683    7.99902    6.04127
   H_    5.89025    6.84237    0.46892
   H_    6.96244    5.66511    5.41205
H___A    6.65989    5.16985    2.08683
H___A    8.06051    5.63999    1.84574
  C_3    0.50913    2.51334    2.26910
  C_3    1.16418    0.69275    2.66285
  C_3    2.33943   20.56114    1.20195
  N_3    0.66946    0.27329    4.92636
  C_3    0.96881   18.89911    4.47340
  C_3    1.28954   18.96934   -0.33647
  N_3   13.95100   20.56044    0.99846
  C_3   13.86960   20.28940    2.77649
  C_3   13.34307   21.12117    3.60375
  N_3    2.48093    0.19939    5.50384
   H_    0.34403    2.71989    1.12009
   H_    0.91773    2.94264    3.12902
   H_   12.83618    3.50906    3.59462
   H_   12.32972    1.08590    2.59747
   H_    2.01752    0.26598    2.59252
   H_    1.56126    0.76060    0.62133
   H_   12.95532   19.63666    1.64066
H___A   13.40644    1.42224    5.52565
   H_    1.42370   18.34740    3.85848
   H_   12.95602   19.35073    4.72002
   H_    2.29460   18.86726   -0.39879
   H_    0.75844   18.09382   -0.04912
H___A    0.15501    0.42165    0.98040
   H_    1.66551   19.76860    2.83813
   H_   13.59364   18.64589    2.98562
   H_   13.27975    2.16920    4.20576
   H_   11.64865    0.83853    4.24836
H___A   13.09453    2.07620    0.65759
H___A   13.67830   21.22497    5.75673

connect 1 2 single
connect 2 3 single
connect 2 4 single
connect 4 5 single
connect 5 6 single
connect 6 7 single
connect 7 8 single
connect 8 9 single
connect 9 10 single
connect 1 11 single
connect 1 12 single
connect 1 13 single
connect 2 14 single
connect 3 15 single
connect 3 16 single
connect 3 17 single
connect 4 18 single
connect 5 19 single
connect 5 20 single
connect 6 21 single
connect 6 22 single
connect 7 23 single
connect 8 24 single
connect 8 25 single
connect 9 26 single
connect 9 27 single
connect 10 28 single
connect 10 29 single
connect 30 31 single
connect 31 32 single
connect 31 33 single
connect 33 34 single
connect 34 35 single
connect 35 36 single
connect 36 37 single
connect 37 38 single
connect 38 39 single
connect 30 40 single
connect 30 41 single
connect 30 42 single
connect 31 43 single
connect 32 44 single
connect 32 45 single
connect 32 46 single
connect 33 47 single
connect 34 48 single
connect 34 49 single
connect 35 50 single
connect 35 51 single
connect 36 52 single
connect 37 53 single
connect 37 54 single
connect 38 55 single
connect 38 56 single
connect 39 57 single
connect 39 58 single



# Dreiding library
# from the original GULP library
species
H_     core
H___A  core
C_3    core
N_3    core
O_3    core
Si3    core

keyword molmec 

#
#  Masses for consistency with Dreiding in MS and to handle implicit hydrogens
#
element
mass H_       1.00800 
mass H___A    1.00800 
mass C_3     12.01100 
mass N_3     14.00670 
mass O_3     15.99940 
mass Si3     28.08600 
end
#
# Give covalent radii to ensure that bonding is consistent
# the rtol of 0.2 was modified for the docking chemconfig
rtol 0.2
element
cova H     0.420
cova B     0.800
cova C     0.770
cova N     0.702 
cova O     0.800 
cova F     0.611 
cova Al    1.047 
cova Si    0.937 
cova P     0.890 
cova S     1.040 
cova Ga    1.210 
cova Ge    1.210 
cova As    1.210 
cova Se    1.210 
cova In    1.390 
cova Sn    1.373 
cova Sb    1.432 
cova Te    1.280
cova I     1.360 
end

harmonic bond kcal
 H_       H_           700.0    0.6500
 H___A    H_           700.0    0.6500
 H___A    H___A        700.0    0.6500
 C_3      H_           700.0    1.0900
 C_3      H___A        700.0    1.0900
 C_3      C_3          700.0    1.5300
 N_3      H_           700.0    1.0220
 N_3      H___A        700.0    1.0220
 N_3      C_3          700.0    1.4620
 N_3      N_3          700.0    1.3940
 O_3      H_           700.0    0.9800
 O_3      H___A        700.0    0.9800
 O_3      C_3          700.0    1.4200
 O_3      N_3          700.0    1.3520
 O_3      O_3          700.0    1.3100
 Si3      H_           700.0    1.2570
 Si3      H___A        700.0    1.2570
 Si3      C_3          700.0    1.6970
 Si3      N_3          700.0    1.6290
 Si3      O_3          700.0    1.5870
 Si3      Si3          700.0    1.8640
three-body bond kcal
C_3      X X   100.0  109.4710
N_3      X X   100.0  106.7000
O_3      X X   100.0  104.5100
Si3      X X   100.0  109.4710
torsion bond kcal dreiding single
X     C_3   C_3   X     1.0    -3 180.00
X     N_3   C_3   X     1.0    -3 180.00
X     N_3   N_3   X     1.0    -3 180.00
X     O_3   C_3   X     1.0    -3 180.00
X     O_3   N_3   X     1.0    -3 180.00
X     O_3   O_3   X     1.0    -2 180.00
X     Si3   C_3   X     1.0    -3 180.00
X     Si3   N_3   X     1.0    -3 180.00
X     Si3   O_3   X     1.0    -3 180.00
X     Si3   Si3   X     1.0    -3 180.00
epsilon kcal
H_    0.0152 3.1950
H___A 0.0001 3.1950
C_3   0.0951 3.8983
N_3   0.0774 3.6621
O_3   0.0957 3.4046
Si3   0.3100 4.2700
lennard epsilon 12 6 kcal x13 geometric all
0.0 12.5
hydrogen-bond kcal 12 10 4 taper dreiding
H_     N_3   N_3  3741298.1709492207 593660.5362167358 105.0 115.0 &
  0.0 3.0 0.0 3.0 0.0 5.0
H_     O_3   N_3  3741298.1709492207 593660.5362167358 105.0 115.0 &
  0.0 3.0 0.0 3.0 0.0 5.0
H_     O_3   O_3  3741298.1709492207 593660.5362167358 105.0 115.0 &
  0.0 3.0 0.0 3.0 0.0 5.0
H___A  N_3   N_3  3741298.1709492207 593660.5362167358 105.0 115.0 &
  0.0 3.0 0.0 3.0 0.0 5.0
H___A  O_3   N_3  3741298.1709492207 593660.5362167358 105.0 115.0 &
  0.0 3.0 0.0 3.0 0.0 5.0
H___A  O_3   O_3  3741298.1709492207 593660.5362167358 105.0 115.0 &
  0.0 3.0 0.0 3.0 0.0 5.0