single
title
 
end

maxcyc 150

vectors
13.2638260 0.5946850 0.4421320
0.7540700 20.8949560 -0.6552450
0.1648750 -0.1927000 6.2141040 

cartesian
  O_3    4.31673   20.19892    0.04769
  O_3   10.61332   10.15870    0.60878
  O_3   10.38891   20.40988    0.22210
  O_3    3.16020    9.41035    0.51001
  O_3    3.93119   20.30647    2.92348
  O_3   10.88274    9.50967    3.48198
  O_3   10.51853   20.38428    3.34732
  O_3    3.41374    9.70163    3.46908
  O_3    5.61313    0.79026    2.00325
  O_3   12.58062   11.62089    2.52018
  O_3    7.86571    0.81784    2.28000
  O_3    1.59387   10.95284    1.64008
  O_3    5.94443   18.68574    4.02113
  O_3   12.63048    8.53001    5.52630
  O_3    8.51266   18.54749    4.43476
  O_3    1.56823    8.10193    4.78837
  O_3    3.29331    1.48791    2.20791
  O_3   10.12528   12.52328    2.22604
  O_3   10.34802    2.17050    2.12505
  O_3    3.99401   12.18585    1.50953
  O_3    3.95528   17.58500    4.09967
  O_3   10.17905    7.25076    5.06541
  O_3   11.04658   17.78341    4.98169
  O_3    3.80039    6.90143    4.79731
  O_3    1.57250    4.35177    1.08472
  O_3    6.74413   15.04750    1.80130
  O_3   11.93274    3.17760    2.20455
  O_3    4.93015   15.06303    1.57454
  O_3    1.98357   15.54921    4.75768
  O_3    8.35774    5.51366    5.36796
  O_3   13.06890   15.61119    5.17394
  O_3    5.58748    4.51831    4.79387
  O_3    3.32601    4.26142    0.54310
  O_3   10.49737   15.26017    0.42268
  O_3   10.07308    4.65287    0.76265
  O_3    4.15235   14.89673   -0.01628
  O_3    4.19489   14.49230    3.53349
  O_3   10.42281    5.28053    3.62027
  O_3   10.57966   15.16475    3.53101
  O_3    3.30238    4.22325    3.46758
  O_3   13.32010    6.58820    3.77008
  O_3    5.53763   16.47497    3.11365
  O_3    0.64328   13.16967    0.10954
  O_3    6.82985    2.84719    0.61418
  O_3    0.73031   13.06799    3.31745
  O_3    6.87076    2.76169    3.98618
  O_3   13.25415    6.78833    0.84225
  O_3    5.51411   16.66696    0.32057
  Si3    4.09857    0.39364    0.97756
  Si3   11.06979   10.94201    2.23454
  Si3    9.41763    0.57368    2.43941
  Si3    3.09572   10.68321    1.84773
  Si3    4.68956   18.88232    2.54965
  Si3   11.04623    8.81618    5.30032
  Si3   10.06874   19.30231    4.84534
  Si3    2.98632    8.49826    4.91938
  Si3    2.74165    3.88399    2.64406
  Si3    9.93382   14.37753    1.98514
  Si3   10.81200    4.12325    2.30532
  Si3    4.02953   13.96326    1.66817
  Si3    3.51168   15.72937    4.74655
  Si3    9.77836    5.57040    5.40269
  Si3   11.22542   15.95168    5.07641
  Si3    4.03652    5.11904    5.22800
  Si3   13.24490    5.46310    2.19470
  Si3    4.14058   16.22800    1.89259
  Si3    1.27268   14.01361    4.76509
  Si3    7.13134    3.81438    5.38698
  Si3    6.75573    2.05015    2.28425
  Si3    0.59071   12.22528    1.75973
  Si3    6.81405   17.26927    4.66181
  Si3    0.55057    6.76148    4.97151

connect 1 53 single
connect 1 49 single
connect 2 54 single
connect 2 50 single
connect 3 55 single
connect 3 51 single
connect 4 56 single
connect 4 52 single
connect 5 53 single
connect 5 49 single
connect 6 54 single
connect 6 50 single
connect 7 55 single
connect 7 51 single
connect 8 56 single
connect 8 52 single
connect 9 49 single
connect 9 69 single
connect 10 50 single
connect 10 70 single
connect 11 69 single
connect 11 51 single
connect 12 70 single
connect 12 52 single
connect 13 53 single
connect 13 71 single
connect 14 54 single
connect 14 72 single
connect 15 71 single
connect 15 55 single
connect 16 72 single
connect 16 56 single
connect 17 57 single
connect 17 49 single
connect 18 58 single
connect 18 50 single
connect 19 51 single
connect 19 59 single
connect 20 52 single
connect 20 60 single
connect 21 61 single
connect 21 53 single
connect 22 62 single
connect 22 54 single
connect 23 55 single
connect 23 63 single
connect 24 56 single
connect 24 64 single
connect 25 65 single
connect 25 57 single
connect 26 66 single
connect 26 58 single
connect 27 59 single
connect 27 65 single
connect 28 60 single
connect 28 66 single
connect 29 67 single
connect 29 61 single
connect 30 68 single
connect 30 62 single
connect 31 63 single
connect 31 67 single
connect 32 64 single
connect 32 68 single
connect 33 57 single
connect 33 64 single
connect 34 58 single
connect 34 63 single
connect 35 62 single
connect 35 59 single
connect 36 61 single
connect 36 60 single
connect 37 61 single
connect 37 60 single
connect 38 62 single
connect 38 59 single
connect 39 58 single
connect 39 63 single
connect 40 57 single
connect 40 64 single
connect 41 65 single
connect 41 72 single
connect 42 66 single
connect 42 71 single
connect 43 70 single
connect 43 67 single
connect 44 69 single
connect 44 68 single
connect 45 70 single
connect 45 67 single
connect 46 69 single
connect 46 68 single
connect 47 65 single
connect 47 72 single
connect 48 66 single
connect 48 71 single



# Dreiding library
# from the original GULP library
species
H_     core
H___A  core
C_3    core
N_3    core
O_3    core
Si3    core

keyword molmec 

#
#  Masses for consistency with Dreiding in MS and to handle implicit hydrogens
#
element
mass H_       1.00800 
mass H___A    1.00800 
mass C_3     12.01100 
mass N_3     14.00670 
mass O_3     15.99940 
mass Si3     28.08600 
end
#
# Give covalent radii to ensure that bonding is consistent
# the rtol of 0.2 was modified for the docking chemconfig
rtol 0.2
element
cova H     0.420
cova B     0.800
cova C     0.770
cova N     0.702 
cova O     0.800 
cova F     0.611 
cova Al    1.047 
cova Si    0.937 
cova P     0.890 
cova S     1.040 
cova Ga    1.210 
cova Ge    1.210 
cova As    1.210 
cova Se    1.210 
cova In    1.390 
cova Sn    1.373 
cova Sb    1.432 
cova Te    1.280
cova I     1.360 
end

harmonic bond kcal
 H_       H_           700.0    0.6500
 H___A    H_           700.0    0.6500
 H___A    H___A        700.0    0.6500
 C_3      H_           700.0    1.0900
 C_3      H___A        700.0    1.0900
 C_3      C_3          700.0    1.5300
 N_3      H_           700.0    1.0220
 N_3      H___A        700.0    1.0220
 N_3      C_3          700.0    1.4620
 N_3      N_3          700.0    1.3940
 O_3      H_           700.0    0.9800
 O_3      H___A        700.0    0.9800
 O_3      C_3          700.0    1.4200
 O_3      N_3          700.0    1.3520
 O_3      O_3          700.0    1.3100
 Si3      H_           700.0    1.2570
 Si3      H___A        700.0    1.2570
 Si3      C_3          700.0    1.6970
 Si3      N_3          700.0    1.6290
 Si3      O_3          700.0    1.5870
 Si3      Si3          700.0    1.8640
three-body bond kcal
C_3      X X   100.0  109.4710
N_3      X X   100.0  106.7000
O_3      X X   100.0  104.5100
Si3      X X   100.0  109.4710
torsion bond kcal dreiding single
X     C_3   C_3   X     1.0    -3 180.00
X     N_3   C_3   X     1.0    -3 180.00
X     N_3   N_3   X     1.0    -3 180.00
X     O_3   C_3   X     1.0    -3 180.00
X     O_3   N_3   X     1.0    -3 180.00
X     O_3   O_3   X     1.0    -2 180.00
X     Si3   C_3   X     1.0    -3 180.00
X     Si3   N_3   X     1.0    -3 180.00
X     Si3   O_3   X     1.0    -3 180.00
X     Si3   Si3   X     1.0    -3 180.00
epsilon kcal
H_    0.0152 3.1950
H___A 0.0001 3.1950
C_3   0.0951 3.8983
N_3   0.0774 3.6621
O_3   0.0957 3.4046
Si3   0.3100 4.2700
lennard epsilon 12 6 kcal x13 geometric all
0.0 12.5
hydrogen-bond kcal 12 10 4 taper dreiding
H_     N_3   N_3  3741298.1709492207 593660.5362167358 105.0 115.0 &
  0.0 3.0 0.0 3.0 0.0 5.0
H_     O_3   N_3  3741298.1709492207 593660.5362167358 105.0 115.0 &
  0.0 3.0 0.0 3.0 0.0 5.0
H_     O_3   O_3  3741298.1709492207 593660.5362167358 105.0 115.0 &
  0.0 3.0 0.0 3.0 0.0 5.0
H___A  N_3   N_3  3741298.1709492207 593660.5362167358 105.0 115.0 &
  0.0 3.0 0.0 3.0 0.0 5.0
H___A  O_3   N_3  3741298.1709492207 593660.5362167358 105.0 115.0 &
  0.0 3.0 0.0 3.0 0.0 5.0
H___A  O_3   O_3  3741298.1709492207 593660.5362167358 105.0 115.0 &
  0.0 3.0 0.0 3.0 0.0 5.0