conp gradient prop opti
title
ASE calculation
end

cell
14.797069 11.767681  8.708373 51.12556 139.14754 150.56569
frac
 Si core  0.9242700   0.1206600   0.0624100
 Si core  0.5785350   0.2893130   0.2850980
 Si core  0.4117520   0.5771770   0.0484290
 Si core  0.8894790   0.7774080   0.1638770
 Si core  0.2127970   0.1451640   0.0184340
 Si core  0.2171960   0.7411800   0.5712000
 Si core  0.7106960   0.2327200   0.7846980
 Si core  0.0622710   0.6838860   0.1219890
 O_O2- core  0.1710480   0.3454150   0.0547670
 O_O2- shel  0.1710480   0.3454150   0.0547670
 O_O2- core  0.6709080   0.8465030   0.0540740
 O_O2- shel  0.6709080   0.8465030   0.0540740
 O_O2- core  0.9028960   0.9505750   0.1166080
 O_O2- shel  0.9028960   0.9505750   0.1166080
 O_O2- core  0.8165640   0.1785330   0.9267020
 O_O2- shel  0.8165640   0.1785330   0.9267020
 O_O2- core  0.7314110   0.5366980   0.2256980
 O_O2- shel  0.7314110   0.5366980   0.2256980
 O_O2- core  0.3969940   0.2204350   0.1440600
 O_O2- shel  0.3969940   0.2204350   0.1440600
 O_O2- core  0.6451090   0.2637840   0.5335770
 O_O2- shel  0.6451090   0.2637840   0.5335770
 O_O2- core  0.3114290   0.9800450   0.1980030
 O_O2- shel  0.3114290   0.9800450   0.1980030
 O_O2- core  0.3137140   0.3628700   0.0306150
 O_O2- shel  0.3137140   0.3628700   0.0306150
 O_O2- core  0.3139330   0.6572310   0.8207780
 O_O2- shel  0.3139330   0.6572310   0.8207780
 O_O2- core  0.0456860   0.7621230   0.3812500
 O_O2- shel  0.0456860   0.7621230   0.3812500
 O_O2- core  0.0464340   0.9673930   0.0923070
 O_O2- shel  0.0464340   0.9673930   0.0923070
 O_O2- core  0.1364690   0.9043610   0.0582500
 O_O2- shel  0.1364690   0.9043610   0.0582500
 O_O2- core  0.1355450   0.6979150   0.3482810
 O_O2- shel  0.1355450   0.6979150   0.3482810
 O_O2- core  0.4603810   0.9889220   0.6906670
 O_O2- shel  0.4603810   0.9889220   0.6906670
 O_O2- core  0.8827910   0.4462490   0.9486370
 O_O2- shel  0.8827910   0.4462490   0.9486370

library catlow.lib
species
Si core 4.000
O_O2- core 0.86902
O_O2- shel -2.86902
buckingham
Si core    O_O2- shel  1283.907 0.32052 10.66158 0.0 10.0
Si core    O_OH  core   983.557 0.32052 10.66158 0.0 10.0
O_O2- shel O_O2- shel 22764.000 0.14900 27.87900 0.0 12.0
O_O2- shel O_OH  core 22764.000 0.14900 27.87900 0.0 12.0
O_OH  core O_OH  core 22764.000 0.14900 27.87900 0.0 12.0
O_O2- shel H_OH  core   311.970 0.25000  0.00000 0.0 12.0
morse
O_OH  core H_OH  core 7.0525 2.1986 0.9485 1.0 1.4
spring
O_O2-  74.92
three
Si core O_O2- shel O_O2- shel 2.09724 109.47 1.9 1.9 3.5
Si core O_OH  core O_O2- shel 2.09724 109.47 1.9 1.9 3.5
